sat
(:added-eqs                       13268
 :arith-eq-adapter                1012
 :arith-bound-propagations-lp     2497
 :arith-branch                    79
 :arith-conflicts                 2969
 :arith-cube-calls                30
 :arith-diseq                     9115
 :arith-fixed-eqs                 4623
 :arith-gcd-calls                 427
 :arith-gcd-conflict              1
 :arith-gomory-cuts               39
 :arith-grobner-calls             508
 :arith-grobner-conflicts         107
 :arith-hnf-calls                 1
 :arith-horner-calls              149
 :arith-horner-conflicts          9
 :arith-horner-cross-nested-forms 15547
 :arith-lower                     9675
 :arith-make-feasible             7612
 :arith-max-columns               819
 :arith-max-rows                  475
 :arith-nla-add-bounds            159
 :arith-nla-lemmas                1966
 :arith-nla-propagate-bounds      604
 :arith-nla-propagate-eq          5767
 :arith-nra-calls                 77
 :arith-offset-eqs                2978
 :arith-patches                   426
 :arith-patches-success           307
 :arith-upper                     11596
 :binary-propagations             50770
 :card2bv-rewrites                2
 :cnf-encoding-aux-vars           7
 :conflicts                       602
 :decisions                       93826
 :del-clause                      4601
 :elim-unconstrained              96
 :final-checks                    1125
 :max-memory                      29.40
 :memory                          19.15
 :minimized-lits                  2428
 :mk-bool-var                     8855
 :mk-clause                       6827
 :mk-clause-binary                7954
 :nlsat-conflicts                 7216
 :nlsat-decisions                 103
 :nlsat-propagations              254033
 :nlsat-restarts                  3
 :nlsat-stages                    110131
 :num-allocs                      2217035613
 :num-checks                      1
 :propagations                    88841
 :restarts                        5
 :rlimit-count                    4255219
 :solve-eqs-elim-vars             50
 :solve-eqs-steps                 607
 :time                            2.03
 :total-time                      2.05)
